
Gurobi 11.0.1 (win64) logging started Mon Apr  1 12:44:54 2024

Set parameter LogFile to value "C:\Projetos\Job_Rotation_Algorithms\Outputs\GurobiLogs\gurobi_log-output-41_hes-c43-CostaMirallesModel-NoExtraConstraint-2.log"
Gurobi Optimizer version 11.0.1 build v11.0.1rc0 (win64 - Windows 10.0 (19045.2))

CPU model: 11th Gen Intel(R) Core(TM) i7-1165G7 @ 2.80GHz, instruction set [SSE2|AVX|AVX2|AVX512]
Thread count: 4 physical cores, 8 logical processors, using up to 1 threads


Gurobi 11.0.1 (win64) logging started Mon Apr  1 21:32:50 2024

Set parameter LogFile to value "C:\Projetos\Job_Rotation_Algorithms\Outputs\GurobiLogs\gurobi_log-output-41_hes-c43-CostaMirallesModel-NoExtraConstraint-2.log"
Gurobi Optimizer version 11.0.1 build v11.0.1rc0 (win64 - Windows 10.0 (19045.2))

CPU model: 11th Gen Intel(R) Core(TM) i7-1165G7 @ 2.80GHz, instruction set [SSE2|AVX|AVX2|AVX512]
Thread count: 4 physical cores, 8 logical processors, using up to 1 threads


Gurobi 11.0.1 (win64) logging started Thu Apr  4 23:30:35 2024

Set parameter LogFile to value "C:\Projetos\Job_Rotation_Algorithms\Outputs\GurobiLogs\gurobi_log-output-41_hes-c43-CostaMirallesModel-NoExtraConstraint-2.log"
Gurobi Optimizer version 11.0.1 build v11.0.1rc0 (win64 - Windows 10.0 (19045.2))

CPU model: 11th Gen Intel(R) Core(TM) i7-1165G7 @ 2.80GHz, instruction set [SSE2|AVX|AVX2|AVX512]
Thread count: 4 physical cores, 8 logical processors, using up to 1 threads


Gurobi 11.0.1 (win64) logging started Sat Apr  6 12:59:37 2024

Set parameter LogFile to value "C:\Projetos\Job_Rotation_Algorithms\Outputs\GurobiLogs\gurobi_log-output-41_hes-c43-CostaMirallesModel-NoExtraConstraint-2.log"
Gurobi Optimizer version 11.0.1 build v11.0.1rc0 (win64 - Windows 10.0 (19045.2))

CPU model: 11th Gen Intel(R) Core(TM) i7-1165G7 @ 2.80GHz, instruction set [SSE2|AVX|AVX2|AVX512]
Thread count: 4 physical cores, 8 logical processors, using up to 1 threads


Gurobi 11.0.1 (win64) logging started Sun Apr  7 02:33:06 2024

Set parameter LogFile to value "C:\Projetos\Job_Rotation_Algorithms\Outputs\GurobiLogs\gurobi_log-output-41_hes-c43-CostaMirallesModel-NoExtraConstraint-2.log"
Gurobi Optimizer version 11.0.1 build v11.0.1rc0 (win64 - Windows 10.0 (19045.2))

CPU model: 11th Gen Intel(R) Core(TM) i7-1165G7 @ 2.80GHz, instruction set [SSE2|AVX|AVX2|AVX512]
Thread count: 4 physical cores, 8 logical processors, using up to 1 threads


Gurobi 11.0.1 (win64) logging started Sun Apr  7 09:45:58 2024

Set parameter LogFile to value "C:\Projetos\Job_Rotation_Algorithms\Outputs\GurobiLogs\gurobi_log-output-41_hes-c43-CostaMirallesModel-NoExtraConstraint-2.log"
Gurobi Optimizer version 11.0.1 build v11.0.1rc0 (win64 - Windows 10.0 (19045.2))

CPU model: 11th Gen Intel(R) Core(TM) i7-1165G7 @ 2.80GHz, instruction set [SSE2|AVX|AVX2|AVX512]
Thread count: 4 physical cores, 8 logical processors, using up to 1 threads


Gurobi 11.0.1 (win64) logging started Tue Apr  9 08:04:25 2024

Set parameter LogFile to value "C:\Projetos\Job_Rotation_Algorithms\Outputs\GurobiLogs\gurobi_log-output-41_hes-c43-CostaMirallesModel-NoExtraConstraint-2.log"
Gurobi Optimizer version 11.0.1 build v11.0.1rc0 (win64 - Windows 10.0 (19045.2))

CPU model: 11th Gen Intel(R) Core(TM) i7-1165G7 @ 2.80GHz, instruction set [SSE2|AVX|AVX2|AVX512]
Thread count: 4 physical cores, 8 logical processors, using up to 1 threads


Gurobi 11.0.1 (win64) logging started Wed Apr 10 17:33:31 2024

Set parameter LogFile to value "C:\Projetos\Job_Rotation_Algorithms\Outputs\GurobiLogs\gurobi_log-output-41_hes-c43-CostaMirallesModel-NoExtraConstraint-2.log"
Gurobi Optimizer version 11.0.1 build v11.0.1rc0 (win64 - Windows 10.0 (19045.2))

CPU model: 11th Gen Intel(R) Core(TM) i7-1165G7 @ 2.80GHz, instruction set [SSE2|AVX|AVX2|AVX512]
Thread count: 4 physical cores, 8 logical processors, using up to 1 threads


Gurobi 11.0.1 (win64) logging started Thu Apr 11 01:39:26 2024

Set parameter LogFile to value "C:\Projetos\Job_Rotation_Algorithms\Outputs\GurobiLogs\gurobi_log-output-41_hes-c43-CostaMirallesModel-NoExtraConstraint-2.log"
Gurobi Optimizer version 11.0.1 build v11.0.1rc0 (win64 - Windows 10.0 (19045.2))

CPU model: 11th Gen Intel(R) Core(TM) i7-1165G7 @ 2.80GHz, instruction set [SSE2|AVX|AVX2|AVX512]
Thread count: 4 physical cores, 8 logical processors, using up to 1 threads


Gurobi 11.0.1 (win64) logging started Sat Apr 20 14:37:11 2024

Set parameter LogFile to value "C:\Projetos\Job_Rotation_Algorithms\Outputs\GurobiLogs\gurobi_log-output-41_hes-c43-CostaMirallesModel-NoExtraConstraint-2.log"
Gurobi Optimizer version 11.0.1 build v11.0.1rc0 (win64 - Windows 10.0 (19045.2))

CPU model: 11th Gen Intel(R) Core(TM) i7-1165G7 @ 2.80GHz, instruction set [SSE2|AVX|AVX2|AVX512]
Thread count: 4 physical cores, 8 logical processors, using up to 1 threads

WLS license 901038 - registered to Bitka Analytics
Optimize a model with 933 rows, 2650 columns and 32540 nonzeros
Model fingerprint: 0x3d9d12b4
Variable types: 2 continuous, 2648 integer (2648 binary)
Coefficient statistics:
  Matrix range     [1e+00, 1e+02]
  Objective range  [1e+00, 1e+00]
  Bounds range     [1e+00, 9e+01]
  RHS range        [1e+00, 9e+01]
Presolve removed 229 rows and 627 columns
Presolve time: 0.23s
Presolved: 704 rows, 2023 columns, 18187 nonzeros
Variable types: 0 continuous, 2023 integer (2022 binary)

Root relaxation: objective 5.600000e+01, 830 iterations, 0.02 seconds (0.02 work units)

    Nodes    |    Current Node    |     Objective Bounds      |     Work
 Expl Unexpl |  Obj  Depth IntInf | Incumbent    BestBd   Gap | It/Node Time

     0     0   56.00000    0   33          -   56.00000      -     -    1s
     0     0   56.00000    0   36          -   56.00000      -     -    1s
H    0     0                      44.0000000   56.00000  27.3%     -    1s
H    0     0                      48.0000000   56.00000  16.7%     -    1s
     0     0   56.00000    0   36   48.00000   56.00000  16.7%     -    1s
     0     0   56.00000    0   73   48.00000   56.00000  16.7%     -    2s
H    0     0                      50.0000000   56.00000  12.0%     -    2s
     0     0   56.00000    0  184   50.00000   56.00000  12.0%     -    2s
     0     0   56.00000    0  175   50.00000   56.00000  12.0%     -    2s
     0     0   56.00000    0   77   50.00000   56.00000  12.0%     -    2s
H    0     0                      52.0000000   56.00000  7.69%     -    2s
     0     0   56.00000    0   72   52.00000   56.00000  7.69%     -    2s
     0     0   56.00000    0   65   52.00000   56.00000  7.69%     -    2s
     0     0   56.00000    0   67   52.00000   56.00000  7.69%     -    2s
     0     0   56.00000    0   72   52.00000   56.00000  7.69%     -    2s
     0     0   56.00000    0  136   52.00000   56.00000  7.69%     -    2s
     0     0   56.00000    0   66   52.00000   56.00000  7.69%     -    2s
     0     0   56.00000    0   55   52.00000   56.00000  7.69%     -    2s
     0     2   56.00000    0   55   52.00000   56.00000  7.69%     -    2s
H  104    68                      53.0000000   56.00000  5.66%  21.2    3s
H  158    85                      54.0000000   56.00000  3.70%  19.4    3s
   634   318   55.48387   43   88   54.00000   56.00000  3.70%  33.8    5s
H  925   368                      55.0000000   56.00000  1.82%  48.7    8s
   936   374   56.00000   35   68   55.00000   56.00000  1.82%  48.1   10s
  1592   245 infeasible   46        55.00000   56.00000  1.82%  67.3   15s
  2048   132   56.00000   38   52   55.00000   56.00000  1.82%  64.9   20s
  2495   124   56.00000   45   92   55.00000   56.00000  1.82%  65.3   25s
  3631   115   56.00000   38  108   55.00000   56.00000  1.82%  56.7   30s
  4713    96 infeasible   47        55.00000   56.00000  1.82%  56.1   35s
  5990   131   56.00000   44   33   55.00000   56.00000  1.82%  52.8   40s
  7225   142 infeasible   56        55.00000   56.00000  1.82%  51.4   45s
  8329   115   56.00000   36  108   55.00000   56.00000  1.82%  50.3   50s
  9374   137   56.00000   40   72   55.00000   56.00000  1.82%  50.1   55s
 10648   144 infeasible   47        55.00000   56.00000  1.82%  48.9   60s
 10711   153   56.00000   51   73   55.00000   56.00000  1.82%  48.9   70s
 12064   136   56.00000   50   58   55.00000   56.00000  1.82%  48.0   75s
 13302   135   56.00000   52   66   55.00000   56.00000  1.82%  47.7   80s
 14222   134   56.00000   55   58   55.00000   56.00000  1.82%  47.9   85s
 15189   128   56.00000   51   60   55.00000   56.00000  1.82%  47.6   90s
 16607   139 infeasible   52        55.00000   56.00000  1.82%  47.1   95s
 18055   150   56.00000   55   49   55.00000   56.00000  1.82%  46.3  101s
 18275    62   56.00000   43   77   55.00000   56.00000  1.82%  46.9  105s

Cutting planes:
  Gomory: 1
  Cover: 39
  Clique: 24
  MIR: 3
  StrongCG: 1
  Flow cover: 7
  GUB cover: 2
  Zero half: 2
  RLT: 2
  BQP: 2

Explored 19776 nodes (911957 simplex iterations) in 108.67 seconds (89.46 work units)
Thread count was 1 (of 8 available processors)

Solution count 7: 55 54 53 ... 44

Optimal solution found (tolerance 1.00e-03)
Best objective 5.500000000000e+01, best bound 5.500000000000e+01, gap 0.0000%
